decision_x1=[0,4];
decision_x2=[0,4];
decision_x3=[0,4];
decision_x4=[0,4];
decision_x5=[0,4];
decision_x6=[0,4];
decision_x7=[0,4];
decision_x8=[0,4];
decision_x9=[0,4];
decision_x10=[0,4];
random_y1=[0,4];
random_y2=[0,4];
random_y3=[0,4];
random_y4=[0,4];
random_y5=[0,4];
random_y6=[0,4];
random_y7=[0,4];
random_y8=[0,4];
random_y9=[0,4];
random_y10=[0,4];
constraint_x2_x1=[
0,0,19|
0,1,73|
0,2,84|
0,3,28|
0,4,7.4|
1,0,27|
1,1,11|
1,2,40|
1,3,65|
1,4,57|
2,0,84|
2,1,41|
2,2,2.2|
2,3,34|
2,4,77|
3,0,54|
3,1,23|
3,2,88|
3,3,8.6|
3,4,60|
4,0,73|
4,1,95|
4,2,76|
4,3,22|
4,4,35|
];
constraint_x4_x1=[
0,0,85|
0,1,33|
0,2,16|
0,3,95|
0,4,84|
1,0,89|
1,1,35|
1,2,58|
1,3,30|
1,4,68|
2,0,70|
2,1,34|
2,2,67|
2,3,51|
2,4,47|
3,0,63|
3,1,30|
3,2,16|
3,3,75|
3,4,34|
4,0,28|
4,1,65|
4,2,54|
4,3,94|
4,4,30|
];
constraint_x4_x3=[
0,0,6.4|
0,1,89|
0,2,69|
0,3,79|
0,4,98|
1,0,97|
1,1,39|
1,2,37|
1,3,3.2|
1,4,30|
2,0,17|
2,1,40|
2,2,86|
2,3,74|
2,4,88|
3,0,46|
3,1,60|
3,2,17|
3,3,66|
3,4,38|
4,0,23|
4,1,48|
4,2,72|
4,3,0.88|
4,4,59|
];
constraint_x5_x2=[
0,0,21|
0,1,84|
0,2,80|
0,3,40|
0,4,48|
1,0,63|
1,1,17|
1,2,17|
1,3,12|
1,4,36|
2,0,83|
2,1,78|
2,2,72|
2,3,67|
2,4,84|
3,0,24|
3,1,6.4|
3,2,86|
3,3,92|
3,4,56|
4,0,47|
4,1,37|
4,2,42|
4,3,9.9|
4,4,48|
];
constraint_x5_x3=[
0,0,64|
0,1,12|
0,2,54|
0,3,1.2|
0,4,24|
1,0,61|
1,1,53|
1,2,51|
1,3,40|
1,4,23|
2,0,28|
2,1,43|
2,2,5.9|
2,3,59|
2,4,47|
3,0,15|
3,1,78|
3,2,87|
3,3,67|
3,4,14|
4,0,88|
4,1,34|
4,2,94|
4,3,52|
4,4,6.4|
];
constraint_x6_x1=[
0,0,1e+02|
0,1,24|
0,2,16|
0,3,12|
0,4,86|
1,0,85|
1,1,78|
1,2,57|
1,3,0.99|
1,4,72|
2,0,64|
2,1,31|
2,2,14|
2,3,98|
2,4,87|
3,0,99|
3,1,88|
3,2,40|
3,3,54|
3,4,40|
4,0,3.1|
4,1,6.7|
4,2,41|
4,3,47|
4,4,78|
];
constraint_x6_x2=[
0,0,37|
0,1,71|
0,2,86|
0,3,97|
0,4,4.6|
1,0,51|
1,1,82|
1,2,56|
1,3,13|
1,4,20|
2,0,91|
2,1,5.7|
2,2,40|
2,3,64|
2,4,57|
3,0,92|
3,1,40|
3,2,78|
3,3,74|
3,4,13|
4,0,16|
4,1,86|
4,2,50|
4,3,45|
4,4,97|
];
constraint_x7_x1=[
0,0,18|
0,1,3.3|
0,2,41|
0,3,66|
0,4,72|
1,0,4.6|
1,1,21|
1,2,27|
1,3,2.7|
1,4,14|
2,0,26|
2,1,68|
2,2,89|
2,3,8.5|
2,4,28|
3,0,60|
3,1,66|
3,2,24|
3,3,43|
3,4,1e+02|
4,0,48|
4,1,83|
4,2,83|
4,3,56|
4,4,63|
];
constraint_x7_x2=[
0,0,34|
0,1,66|
0,2,14|
0,3,62|
0,4,57|
1,0,56|
1,1,24|
1,2,32|
1,3,26|
1,4,58|
2,0,67|
2,1,58|
2,2,47|
2,3,23|
2,4,71|
3,0,10|
3,1,80|
3,2,73|
3,3,66|
3,4,14|
4,0,88|
4,1,22|
4,2,92|
4,3,34|
4,4,18|
];
constraint_x7_x5=[
0,0,97|
0,1,51|
0,2,88|
0,3,75|
0,4,89|
1,0,40|
1,1,83|
1,2,98|
1,3,47|
1,4,82|
2,0,98|
2,1,37|
2,2,65|
2,3,81|
2,4,62|
3,0,22|
3,1,79|
3,2,92|
3,3,41|
3,4,49|
4,0,86|
4,1,6.4|
4,2,18|
4,3,98|
4,4,67|
];
constraint_x8_x1=[
0,0,84|
0,1,54|
0,2,42|
0,3,23|
0,4,26|
1,0,61|
1,1,65|
1,2,67|
1,3,98|
1,4,11|
2,0,80|
2,1,58|
2,2,93|
2,3,45|
2,4,66|
3,0,22|
3,1,69|
3,2,36|
3,3,21|
3,4,0.21|
4,0,74|
4,1,35|
4,2,34|
4,3,41|
4,4,71|
];
constraint_x8_x2=[
0,0,14|
0,1,58|
0,2,91|
0,3,5.6|
0,4,40|
1,0,63|
1,1,28|
1,2,50|
1,3,21|
1,4,89|
2,0,14|
2,1,2.5|
2,2,45|
2,3,38|
2,4,11|
3,0,98|
3,1,45|
3,2,18|
3,3,66|
3,4,1e+02|
4,0,92|
4,1,2.6|
4,2,75|
4,3,63|
4,4,40|
];
constraint_x8_x3=[
0,0,23|
0,1,25|
0,2,20|
0,3,65|
0,4,59|
1,0,13|
1,1,42|
1,2,92|
1,3,81|
1,4,41|
2,0,1e+02|
2,1,93|
2,2,54|
2,3,86|
2,4,52|
3,0,69|
3,1,81|
3,2,63|
3,3,25|
3,4,32|
4,0,99|
4,1,54|
4,2,40|
4,3,91|
4,4,84|
];
constraint_x8_x4=[
0,0,71|
0,1,15|
0,2,73|
0,3,91|
0,4,14|
1,0,87|
1,1,23|
1,2,1.5|
1,3,23|
1,4,63|
2,0,5.6|
2,1,99|
2,2,80|
2,3,20|
2,4,8.1|
3,0,27|
3,1,34|
3,2,28|
3,3,89|
3,4,43|
4,0,80|
4,1,23|
4,2,98|
4,3,92|
4,4,91|
];
constraint_x8_x7=[
0,0,99|
0,1,90|
0,2,22|
0,3,5.4|
0,4,47|
1,0,56|
1,1,91|
1,2,19|
1,3,83|
1,4,70|
2,0,38|
2,1,75|
2,2,84|
2,3,59|
2,4,29|
3,0,85|
3,1,60|
3,2,45|
3,3,13|
3,4,68|
4,0,26|
4,1,2.5|
4,2,3.2|
4,3,50|
4,4,17|
];
constraint_x9_x1=[
0,0,38|
0,1,11|
0,2,87|
0,3,34|
0,4,7.8|
1,0,93|
1,1,47|
1,2,26|
1,3,80|
1,4,45|
2,0,36|
2,1,56|
2,2,80|
2,3,77|
2,4,50|
3,0,89|
3,1,90|
3,2,64|
3,3,10|
3,4,40|
4,0,85|
4,1,28|
4,2,30|
4,3,89|
4,4,86|
];
constraint_x9_x5=[
0,0,36|
0,1,55|
0,2,15|
0,3,24|
0,4,58|
1,0,3.2|
1,1,95|
1,2,78|
1,3,82|
1,4,17|
2,0,19|
2,1,6.5|
2,2,21|
2,3,11|
2,4,14|
3,0,14|
3,1,38|
3,2,87|
3,3,22|
3,4,25|
4,0,69|
4,1,24|
4,2,49|
4,3,44|
4,4,49|
];
constraint_x9_x7=[
0,0,23|
0,1,31|
0,2,96|
0,3,7.2|
0,4,28|
1,0,56|
1,1,41|
1,2,2.6|
1,3,55|
1,4,94|
2,0,39|
2,1,97|
2,2,89|
2,3,44|
2,4,43|
3,0,36|
3,1,15|
3,2,93|
3,3,0.22|
3,4,8.3|
4,0,0.016|
4,1,93|
4,2,86|
4,3,3.4|
4,4,94|
];
constraint_x9_x8=[
0,0,54|
0,1,50|
0,2,28|
0,3,79|
0,4,57|
1,0,53|
1,1,65|
1,2,61|
1,3,17|
1,4,52|
2,0,31|
2,1,23|
2,2,11|
2,3,81|
2,4,5.4|
3,0,84|
3,1,57|
3,2,31|
3,3,75|
3,4,69|
4,0,85|
4,1,60|
4,2,20|
4,3,99|
4,4,43|
];
constraint_x10_x1=[
0,0,77|
0,1,10|
0,2,37|
0,3,56|
0,4,90|
1,0,67|
1,1,17|
1,2,98|
1,3,24|
1,4,73|
2,0,71|
2,1,15|
2,2,17|
2,3,94|
2,4,26|
3,0,80|
3,1,0.74|
3,2,19|
3,3,97|
3,4,93|
4,0,20|
4,1,62|
4,2,35|
4,3,0.32|
4,4,2.6|
];
constraint_x10_x2=[
0,0,78|
0,1,56|
0,2,34|
0,3,69|
0,4,78|
1,0,93|
1,1,45|
1,2,80|
1,3,75|
1,4,22|
2,0,37|
2,1,56|
2,2,94|
2,3,6|
2,4,41|
3,0,37|
3,1,65|
3,2,83|
3,3,69|
3,4,85|
4,0,8.5|
4,1,74|
4,2,83|
4,3,65|
4,4,56|
];
constraint_x10_x4=[
0,0,67|
0,1,30|
0,2,71|
0,3,47|
0,4,16|
1,0,70|
1,1,16|
1,2,35|
1,3,83|
1,4,0.32|
2,0,1.2|
2,1,38|
2,2,82|
2,3,99|
2,4,83|
3,0,85|
3,1,54|
3,2,94|
3,3,15|
3,4,33|
4,0,91|
4,1,12|
4,2,80|
4,3,85|
4,4,24|
];
constraint_x10_x5=[
0,0,99|
0,1,10|
0,2,7.5|
0,3,27|
0,4,27|
1,0,92|
1,1,23|
1,2,94|
1,3,9.6|
1,4,86|
2,0,29|
2,1,53|
2,2,77|
2,3,19|
2,4,75|
3,0,87|
3,1,3.5|
3,2,78|
3,3,98|
3,4,59|
4,0,70|
4,1,41|
4,2,95|
4,3,86|
4,4,63|
];
constraint_x1_y1=[
0,0,22|
0,1,84|
0,2,24|
0,3,23|
0,4,13|
1,0,80|
1,1,50|
1,2,60|
1,3,96|
1,4,97|
2,0,88|
2,1,68|
2,2,84|
2,3,54|
2,4,42|
3,0,28|
3,1,70|
3,2,71|
3,3,37|
3,4,83|
4,0,2.5|
4,1,23|
4,2,32|
4,3,40|
4,4,20|
];
constraint_x2_y2=[
0,0,81|
0,1,3.2|
0,2,15|
0,3,95|
0,4,43|
1,0,33|
1,1,31|
1,2,52|
1,3,61|
1,4,17|
2,0,18|
2,1,18|
2,2,38|
2,3,21|
2,4,75|
3,0,87|
3,1,74|
3,2,39|
3,3,2.1|
3,4,68|
4,0,56|
4,1,15|
4,2,4.2|
4,3,58|
4,4,98|
];
constraint_x3_y3=[
0,0,74|
0,1,71|
0,2,34|
0,3,78|
0,4,84|
1,0,39|
1,1,97|
1,2,39|
1,3,45|
1,4,0.7|
2,0,79|
2,1,45|
2,2,26|
2,3,1e+02|
2,4,49|
3,0,47|
3,1,40|
3,2,15|
3,3,15|
3,4,30|
4,0,70|
4,1,23|
4,2,5.9|
4,3,89|
4,4,41|
];
constraint_x4_y4=[
0,0,90|
0,1,50|
0,2,38|
0,3,87|
0,4,56|
1,0,93|
1,1,51|
1,2,11|
1,3,94|
1,4,47|
2,0,39|
2,1,38|
2,2,94|
2,3,41|
2,4,7.9|
3,0,6.7|
3,1,76|
3,2,0.17|
3,3,34|
3,4,69|
4,0,34|
4,1,24|
4,2,52|
4,3,74|
4,4,17|
];
constraint_x5_y5=[
0,0,91|
0,1,58|
0,2,28|
0,3,96|
0,4,8.8|
1,0,2.6|
1,1,94|
1,2,55|
1,3,4.3|
1,4,11|
2,0,63|
2,1,4.8|
2,2,50|
2,3,91|
2,4,73|
3,0,66|
3,1,62|
3,2,79|
3,3,9.4|
3,4,49|
4,0,32|
4,1,40|
4,2,53|
4,3,37|
4,4,91|
];
constraint_x6_y6=[
0,0,63|
0,1,45|
0,2,64|
0,3,12|
0,4,21|
1,0,66|
1,1,57|
1,2,12|
1,3,5.4|
1,4,13|
2,0,32|
2,1,63|
2,2,94|
2,3,61|
2,4,35|
3,0,75|
3,1,18|
3,2,38|
3,3,42|
3,4,8|
4,0,1e+02|
4,1,18|
4,2,79|
4,3,33|
4,4,74|
];
constraint_x7_y7=[
0,0,91|
0,1,72|
0,2,15|
0,3,84|
0,4,31|
1,0,36|
1,1,97|
1,2,18|
1,3,45|
1,4,5.1|
2,0,51|
2,1,34|
2,2,80|
2,3,20|
2,4,40|
3,0,38|
3,1,53|
3,2,92|
3,3,52|
3,4,8.4|
4,0,1.6|
4,1,69|
4,2,66|
4,3,28|
4,4,25|
];
constraint_x8_y8=[
0,0,86|
0,1,40|
0,2,24|
0,3,41|
0,4,69|
1,0,52|
1,1,6.1|
1,2,32|
1,3,61|
1,4,52|
2,0,6.4|
2,1,43|
2,2,24|
2,3,29|
2,4,74|
3,0,27|
3,1,59|
3,2,76|
3,3,63|
3,4,75|
4,0,82|
4,1,26|
4,2,62|
4,3,38|
4,4,68|
];
constraint_x9_y9=[
0,0,45|
0,1,42|
0,2,40|
0,3,54|
0,4,8.7|
1,0,54|
1,1,80|
1,2,89|
1,3,48|
1,4,32|
2,0,55|
2,1,37|
2,2,92|
2,3,23|
2,4,70|
3,0,15|
3,1,2.2|
3,2,22|
3,3,54|
3,4,62|
4,0,12|
4,1,69|
4,2,71|
4,3,52|
4,4,15|
];
constraint_x10_y10=[
0,0,40|
0,1,50|
0,2,59|
0,3,85|
0,4,55|
1,0,92|
1,1,36|
1,2,97|
1,3,90|
1,4,36|
2,0,66|
2,1,56|
2,2,97|
2,3,10|
2,4,32|
3,0,86|
3,1,70|
3,2,92|
3,3,16|
3,4,6.2|
4,0,13|
4,1,44|
4,2,56|
4,3,25|
4,4,99|
];
initial_distribution_y1=[0.13,0.27,0.28,0.073,0.24];
initial_distribution_y2=[0.18,0.31,0.33,0.054,0.13];
initial_distribution_y3=[0.26,0.29,0.15,0.27,0.033];
initial_distribution_y4=[0.11,0.32,0.41,0.053,0.11];
initial_distribution_y5=[0.25,0.071,0.22,0.22,0.24];
initial_distribution_y6=[0.16,0.28,0.17,0.31,0.08];
initial_distribution_y7=[0.28,0.18,0.31,0.13,0.11];
initial_distribution_y8=[0.28,0.26,0.27,0.017,0.17];
initial_distribution_y9=[0.28,0.34,0.08,0.16,0.15];
initial_distribution_y10=[0.41,0.11,0.0043,0.27,0.21];
transition_y1=[
0.061,0.39,0.23,0.16,0.15|
0.28,0.24,0.2,0.27,0.0092|
0.33,0.18,0.23,0.23,0.029|
0.2,0.25,0.038,0.31,0.21|
0.21,0.021,0.37,0.3,0.094|
];
transition_y2=[
0.056,0.26,0.15,0.17,0.37|
0.19,0.26,0.22,0.14,0.19|
0.25,0.13,0.24,0.21,0.17|
0.21,0.19,0.21,0.15,0.24|
0.28,0.22,0.065,0.27,0.16|
];
transition_y3=[
0.13,0.18,0.2,0.32,0.18|
0.11,0.22,0.11,0.34,0.21|
0.24,0.47,0.15,0.096,0.053|
0.17,0.11,0.4,0.18,0.15|
0.15,0.3,0.25,0.29,0.013|
];
transition_y4=[
0.076,0.23,0.14,0.31,0.24|
0.13,0.12,0.29,0.24,0.22|
0.13,0.34,0.16,0.036,0.34|
0.11,0.35,0.11,0.014,0.42|
0.21,0.13,0.21,0.23,0.23|
];
transition_y5=[
0.46,0.12,0.14,0.086,0.19|
0.0062,0.29,0.3,0.3,0.098|
0.27,0.069,0.23,0.13,0.3|
0.059,0.073,0.35,0.3,0.22|
0.15,0.16,0.26,0.29,0.14|
];
transition_y6=[
0.13,0.22,0.074,0.054,0.52|
0.13,0.25,0.0075,0.35,0.26|
0.28,0.14,0.22,0.1,0.25|
0.28,0.11,0.23,0.28,0.099|
0.15,0.23,0.29,0.26,0.074|
];
transition_y7=[
0.18,0.029,0.13,0.31,0.34|
0.32,0.13,0.026,0.18,0.34|
0.2,0.4,0.17,0.073,0.16|
0.16,0.063,0.26,0.24,0.27|
0.23,0.15,0.23,0.3,0.085|
];
transition_y8=[
0.14,0.22,0.16,0.27,0.21|
0.055,0.35,0.33,0.18,0.076|
0.12,0.052,0.48,0.21,0.14|
0.31,0.11,0.23,0.07,0.28|
0.13,0.22,0.083,0.16,0.4|
];
transition_y9=[
0.28,0.33,0.15,0.11,0.13|
0.084,0.35,0.13,0.32,0.12|
0.41,0.056,0.082,0.21,0.24|
0.01,0.041,0.17,0.39,0.39|
0.2,0.11,0.14,0.25,0.3|
];
transition_y10=[
0.4,0.09,0.019,0.32,0.17|
0.29,0.25,0.031,0.24,0.18|
0.13,0.19,0.28,0.19,0.22|
0.23,0.24,0.076,0.25,0.2|
0.15,0.29,0.18,0.19,0.2|
];
